






































































































32 71 12 63 70 61 33 
54 69 65 34 15 49 
23 66 58 10 76 17 3 56 
13 29 55 30 24 35 0 
7 6 47 14 11 74 37 
5 16 41 52 67 4 
51 38 40 73 44 19 
42 64 60 28 43 36 
72 57 8 18 26 75 50 
9 39 2 20 48 45 27 
62 59 53 22 25 68 
21 31 1 46 
